11
1 7
2 10
3 4
4 10
5 9
6 3
7 4
8 2
9 7
10 1
11 10
46
0 1 80
1 0 80
0 2 1
2 0 1
0 3 10
3 0 10
0 4 93
4 0 93
0 5 82
5 0 82
0 6 24
6 0 24
0 7 29
7 0 29
0 8 2
8 0 2
0 9 66
9 0 66
0 10 80
10 0 80
0 11 58
11 0 58
1 6 62
1 7 23
1 9 78
1 11 6
2 7 71
2 11 54
3 6 53
3 8 34
3 11 71
4 5 48
4 6 46
4 8 2
5 7 17
5 9 66
5 10 77
6 7 29
6 10 76
6 11 19
7 8 5
7 11 29
8 9 91
8 11 72
9 10 32
9 11 93
